networks/zoo_22_88/zoo_22_88-lower.sol
<?xml version = "1.0" encoding="UTF-8" standalone="yes"?>
<CPLEXSolution version="1.2">
 <header
   problemName="networks/zoo_22_88/zoo_22_88-lower.lp"
   solutionName="incumbent"
   solutionIndex="-1"
   objectiveValue="11"
   solutionTypeValue="3"
   solutionTypeString="primal"
   solutionStatusValue="101"
   solutionStatusString="integer optimal solution"
   solutionMethodString="mip"
   primalFeasible="1"
   dualFeasible="1"
   MIPNodes="0"
   MIPIterations="0"
   writeLevel="3"/>
 <quality
   epInt="1.0000000000000001e-05"
   epRHS="9.9999999999999995e-07"
   maxIntInfeas="0"
   maxPrimalInfeas="0"
   maxX="1"
   maxSlack="1"/>
 <variables>
  <variable name="Y(1,2)" index="1" value="1"/>
  <variable name="Y(2,3)" index="24" value="1"/>
  <variable name="Y(3,4)" index="47" value="1"/>
  <variable name="Y(4,5)" index="70" value="1"/>
  <variable name="Y(5,6)" index="93" value="1"/>
  <variable name="Y(6,7)" index="116" value="1"/>
  <variable name="Y(7,8)" index="139" value="1"/>
  <variable name="Y(8,9)" index="162" value="1"/>
  <variable name="Y(9,10)" index="185" value="1"/>
  <variable name="Y(10,1)" index="198" value="1"/>
  <variable name="Y(42,11)" index="912" value="1"/>
  <variable name="X(1,3,2)" index="1937" value="1"/>
  <variable name="X(1,5,1)" index="2024" value="1"/>
  <variable name="X(1,8,6)" index="2117" value="1"/>
  <variable name="X(1,12,10)" index="2209" value="1"/>
  <variable name="X(2,7,13)" index="2300" value="1"/>
  <variable name="X(2,11,10)" index="2385" value="1"/>
  <variable name="X(2,13,1)" index="2464" value="1"/>
  <variable name="X(3,1,18)" index="2569" value="1"/>
  <variable name="X(3,14,2)" index="2641" value="1"/>
  <variable name="X(4,5,25)" index="2752" value="1"/>
  <variable name="X(4,9,29)" index="2844" value="1"/>
  <variable name="X(4,15,3)" index="2906" value="1"/>
  <variable name="X(5,1,10)" index="3001" value="1"/>
  <variable name="X(5,4,3)" index="3082" value="1"/>
  <variable name="X(5,6,5)" index="3172" value="1"/>
  <variable name="X(5,9,8)" index="3263" value="1"/>
  <variable name="X(5,10,9)" index="3352" value="1"/>
  <variable name="X(5,11,1)" index="3432" value="1"/>
  <variable name="X(5,16,4)" index="3523" value="1"/>
  <variable name="X(6,5,43)" index="3650" value="1"/>
  <variable name="X(6,7,38)" index="3733" value="1"/>
  <variable name="X(6,17,5)" index="3788" value="1"/>
  <variable name="X(7,2,50)" index="3921" value="1"/>
  <variable name="X(7,6,13)" index="3972" value="1"/>
  <variable name="X(7,8,49)" index="4096" value="1"/>
  <variable name="X(7,11,57)" index="4192" value="1"/>
  <variable name="X(7,18,6)" index="4229" value="1"/>
  <variable name="X(8,1,49)" index="4360" value="1"/>
  <variable name="X(8,7,6)" index="4405" value="1"/>
  <variable name="X(8,9,56)" index="4543" value="1"/>
  <variable name="X(8,19,7)" index="4582" value="1"/>
  <variable name="X(9,4,60)" index="4723" value="1"/>
  <variable name="X(9,5,65)" index="4816" value="1"/>
  <variable name="X(9,8,29)" index="4868" value="1"/>
  <variable name="X(9,10,32)" index="4959" value="1"/>
  <variable name="X(9,20,8)" index="5023" value="1"/>
  <variable name="X(10,5,74)" index="5177" value="1"/>
  <variable name="X(10,9,78)" index="5269" value="1"/>
  <variable name="X(10,11,77)" index="5356" value="1"/>
  <variable name="X(10,21,9)" index="5376" value="1"/>
  <variable name="X(11,2,1)" index="5456" value="1"/>
  <variable name="X(11,5,10)" index="5553" value="1"/>
  <variable name="X(11,7,77)" index="5708" value="1"/>
  <variable name="X(11,8,15)" index="5734" value="1"/>
  <variable name="X(11,10,17)" index="5824" value="1"/>
  <variable name="X(11,22,42)" index="5937" value="1"/>
 </variables>
</CPLEXSolution>
